9
0 83 7 75 2 55 77 5 19 
92 0 58 52 80 42 4 80 81 
22 28 0 30 22 39 100 87 49 
63 86 41 0 93 13 99 93 62 
97 28 37 65 0 5 23 55 62 
71 50 97 29 17 0 35 83 18 
39 15 62 13 99 4 0 82 52 
37 53 62 62 78 86 42 0 88 
7 23 57 21 26 13 32 40 0 
